; benchmark generated from python API
(set-info :status unknown)
(declare-datatypes ((RealState 0)) (((RMk1 (rval1 Real)) (RMk2 (rval2 Real)))))
 (declare-fun I2uscore1dollarskuscore450 () Real)
(declare-fun I1uscore1dollarskuscore450 () Real)
(declare-fun ep () Real)
(declare-fun V () Real)
(declare-fun v2uscore1dollarskuscore450 () Real)
(declare-fun v1uscore1dollarskuscore450 () Real)
(declare-fun t464uscore0 () Real)
(declare-fun A () Real)
(declare-fun v2 () Real)
(declare-fun v1 () Real)
(declare-fun B () Real)
(declare-fun x2 () Real)
(declare-fun xI2 () Real)
(declare-fun I2 () Real)
(declare-fun x1 () Real)
(declare-fun xI1 () Real)
(declare-fun I1 () Real)
(declare-fun x1uscore1dollarskuscore273 () Real)
(declare-fun x2uscore1dollarskuscore312 () Real)
(assert
 (let (($x164 (exists ((ts464uscore0_st RealState) (val!214 Real) )(let (($x139 (= I2uscore1dollarskuscore450 2.0)))
 (let (($x138 (= I1uscore1dollarskuscore450 2.0)))
 (let (($x28 (or $x138 $x139)))
 (let (($x58 (>= v2uscore1dollarskuscore450 0.0)))
 (let (($x165 (>= v1uscore1dollarskuscore450 0.0)))
 (let (($x20 (and (and (and $x165 (<= v1uscore1dollarskuscore450 V)) $x58) (<= v2uscore1dollarskuscore450 V))))
 (let (($x81 (=> (and (<= 0.0 (rval2 ts464uscore0_st)) (<= (rval2 ts464uscore0_st) t464uscore0)) (and $x20 (<= (+ (rval2 ts464uscore0_st) 0.0) ep)))))
 (let (($x85 (>= t464uscore0 0.0)))
 (let (($x16 (>= A 0.0)))
 (let (($x152 (>= v2 0.0)))
 (let (($x189 (>= v1 0.0)))
 (let (($x229 (= I2 2.0)))
 (let (($x187 (= I1 2.0)))
 (let (($x145 (= xI1 x1uscore1dollarskuscore273)))
 (let (($x39 (= v1uscore1dollarskuscore450 V)))
 (let (($x79 (= xI2 x2uscore1dollarskuscore312)))
 (let (($x103 (= v2uscore1dollarskuscore450 V)))
 (let (($x120 (and (and (and (and (and (and $x103 $x79) $x39) $x145) $x139) $x187) (< xI1 x1))))
 (let (($x61 (and (and (and (and $x120 $x229) (< xI2 x2)) (> B 0.0)) $x189)))
 (let (($x88 (and (and (and (and (and $x61 (<= v1 V)) $x152) (<= v2 V)) $x16) (> V 0.0))))
 (let (($x136 (and $x88 (> ep 0.0))))
 (let (($x94 (not (= ts464uscore0_st (RMk1 val!214)))))
 (and $x94 (=> (and $x136 $x85 $x81) $x28)))))))))))))))))))))))))
 ))
 (not $x164)))
(check-sat)
